Version identifier: 20.1.0.0 | 2020-11-10 | 9bedb6d68
CPXPARAM_Threads                                 1
CPXPARAM_TimeLimit                               7200
CPXPARAM_MIP_Tolerances_MIPGap                   0
Generic callback                                 0x60
1 of 1 MIP starts provided solutions.
MIP start 'm1' defined initial solution with objective 1662.1621.
Tried aggregator 1 time.
Reduced MIP has 1 rows, 801 columns, and 800 nonzeros.
Reduced MIP has 800 binaries, 0 generals, 0 SOSs, and 0 indicators.
Presolve time = 0.00 sec. (0.24 ticks)
Probing time = 0.00 sec. (0.09 ticks)
Tried aggregator 1 time.
Reduced MIP has 1 rows, 801 columns, and 800 nonzeros.
Reduced MIP has 800 binaries, 0 generals, 0 SOSs, and 0 indicators.
Presolve time = 0.00 sec. (0.25 ticks)
Probing time = 0.00 sec. (0.09 ticks)
MIP emphasis: balance optimality and feasibility.
MIP search method: dynamic search.
Parallel mode: none, using 1 thread.
Root relaxation solution time = 0.00 sec. (0.17 ticks)

        Nodes                                         Cuts/
   Node  Left     Objective  IInf  Best Integer    Best Bound    ItCnt     Gap

*     0+    0                         1662.1621     4368.0000           162.79%
      0     0     2391.8723     2     1662.1621     4368.0000        0  162.79%
      0     0     2082.1909     4     1662.1621 UserPurge2: 1        7   25.27%
      0     0     1983.4558     5     1662.1621 UserPurge2: 1       19   19.33%
      0     0     1955.1541     6     1662.1621 UserPurge2: 1       27   17.63%
      0     0     1919.3505     7     1662.1621 UserPurge2: 1       39   15.47%
      0     0     1879.1210     7     1662.1621 UserPurge2: 1       49   13.05%
      0     0     1854.3981     9     1662.1621 UserPurge2: 1       68   11.57%
      0     0     1841.0740    10     1662.1621 UserPurge2: 1       85   10.76%
      0     0     1837.5286    11     1662.1621 UserPurge2: 1      105   10.55%
      0     0     1829.9214    13     1662.1621 UserPurge2: 1      128   10.09%
      0     0     1817.0335    14     1662.1621 UserPurge2: 1      157    9.32%
      0     0     1809.5376    16     1662.1621 UserPurge2: 1      175    8.87%
      0     0     1802.4699    17     1662.1621 UserPurge2: 1      216    8.44%
      0     0     1795.5845    17     1662.1621 UserPurge2: 1      248    8.03%
      0     0     1785.9759    14     1662.1621 UserPurge2: 1      319    7.45%
      0     0     1772.3471    14     1662.1621 UserPurge1: 2      327    6.63%
      0     0     1767.7960    13     1662.1621 UserPurge1: 1      331    6.36%
      0     0     1766.6054    13     1662.1621 UserPurge2: 1      347    6.28%
      0     0     1765.7589    16     1662.1621 UserPurge1: 2      353    6.23%
      0     0     1761.4452    14     1662.1621 UserPurge2: 1      384    5.97%
      0     0     1758.2298    15     1662.1621 UserPurge2: 1      402    5.78%
      0     0     1756.4201    15     1662.1621 UserPurge2: 1      428    5.67%
      0     0     1754.3967    16     1662.1621 UserPurge2: 1      456    5.55%
      0     0     1751.7123    17     1662.1621 UserPurge2: 1      474    5.39%
      0     0     1748.9993    16     1662.1621 UserPurge2: 1      507    5.22%
      0     0     1746.9481    16     1662.1621 UserPurge2: 1      532    5.10%
      0     0     1746.9375    17     1662.1621 UserPurge1: 1      535    5.10%
      0     0     1744.8420    16     1662.1621 UserPurge2: 1      575    4.97%
      0     0     1742.0412    14     1662.1621 UserPurge2: 1      599    4.81%
      0     0     1741.2912    15     1662.1621 UserPurge2: 1      620    4.76%
      0     0     1740.5087    17     1662.1621 UserPurge2: 1      634    4.71%
      0     0     1738.9235    16     1662.1621 UserPurge2: 1      668    4.62%
      0     0     1737.6765    17     1662.1621 UserPurge2: 1      694    4.54%
      0     0     1735.0474    15     1662.1621 UserPurge2: 1      726    4.38%
      0     0     1734.4605    16     1662.1621 UserPurge2: 1      736    4.35%
      0     0     1733.1513    16     1662.1621 UserPurge2: 1      758    4.27%
      0     0     1732.5577    16     1662.1621 UserPurge2: 1      771    4.24%
      0     0     1731.2839    15     1662.1621 UserPurge2: 1      797    4.16%
      0     0     1730.4742    16     1662.1621 UserPurge2: 1      822    4.11%
      0     0     1729.7631    18     1662.1621 UserPurge2: 1      840    4.07%
      0     0     1728.3908    17     1662.1621 UserPurge2: 1      863    3.98%
      0     0     1727.4072    17     1662.1621 UserPurge2: 1      886    3.93%
      0     0     1725.5566    18     1662.1621 UserPurge2: 1      923    3.81%
      0     0     1724.3357    19     1662.1621 UserPurge2: 1      946    3.74%
      0     0     1721.9512    16     1662.1621 UserPurge2: 1      980    3.60%
      0     0     1721.3096    17     1662.1621 UserPurge2: 1      993    3.56%
      0     0     1720.7271    19     1662.1621 UserPurge2: 1     1008    3.52%
      0     0     1719.5284    18     1662.1621 UserPurge2: 1     1030    3.45%
      0     0     1718.4267    18     1662.1621 UserPurge2: 1     1064    3.39%
      0     0     1716.9045    18     1662.1621 UserPurge2: 1     1092    3.29%
      0     0     1715.8108    18     1662.1621 UserPurge2: 1     1109    3.23%
      0     0     1715.1334    19     1662.1621 UserPurge2: 1     1127    3.19%
      0     0     1714.6495    19     1662.1621 UserPurge2: 1     1146    3.16%
      0     0     1714.1066    19     1662.1621 UserPurge2: 1     1169    3.13%
      0     0     1713.3294    18     1662.1621 UserPurge2: 1     1207    3.08%
      0     0     1712.5565    18     1662.1621 UserPurge2: 1     1234    3.03%
      0     0     1712.2462    19     1662.1621 UserPurge2: 1     1252    3.01%
      0     0     1711.5235    20     1662.1621 UserPurge2: 1     1271    2.97%
      0     0     1711.2403    21     1662.1621 UserPurge2: 1     1296    2.95%
      0     0     1710.4995    21     1662.1621 UserPurge2: 1     1323    2.91%
      0     0     1705.6360    17     1662.1621 UserPurge2: 1     1380    2.62%
      0     0     1705.0863    18     1662.1621 UserPurge2: 1     1406    2.58%
      0     0     1704.5349    18     1662.1621 UserPurge2: 1     1425    2.55%
      0     0     1704.1999    19     1662.1621 UserPurge2: 1     1436    2.53%
      0     0     1703.6624    19     1662.1621 UserPurge2: 1     1451    2.50%
      0     0     1703.0722    18     1662.1621 UserPurge2: 1     1472    2.46%
      0     0     1702.4901    18     1662.1621 UserPurge2: 1     1484    2.43%
      0     0     1701.7820    18     1662.1621 UserPurge2: 1     1500    2.38%
      0     0     1701.0406    17     1662.1621 UserPurge2: 1     1514    2.34%
      0     0     1700.5945    17     1662.1621 UserPurge2: 1     1534    2.31%
      0     0     1700.1869    18     1662.1621 UserPurge2: 1     1556    2.29%
      0     0     1699.8265    19     1662.1621 UserPurge2: 1     1583    2.27%
      0     0     1699.1089    19     1662.1621 UserPurge2: 1     1614    2.22%
      0     0     1698.7920    19     1662.1621 UserPurge2: 1     1639    2.20%
      0     0     1698.7215    20     1662.1621 UserPurge2: 1     1647    2.20%
      0     0     1698.0348    19     1662.1621 UserPurge2: 1     1680    2.16%
      0     0     1697.4541    20     1662.1621 UserPurge2: 1     1703    2.12%
      0     0     1696.0163    18     1662.1621 UserPurge2: 1     1741    2.04%
      0     0     1695.4727    17     1662.1621 UserPurge2: 1     1762    2.00%
      0     0     1695.4272    18     1662.1621 UserPurge2: 1     1773    2.00%
      0     0     1695.0619    19     1662.1621 UserPurge2: 1     1786    1.98%
      0     0     1694.7347    18     1662.1621 UserPurge2: 1     1804    1.96%
      0     0     1694.5189    19     1662.1621 UserPurge2: 1     1824    1.95%
      0     0     1694.2609    19     1662.1621 UserPurge2: 1     1840    1.93%
      0     0     1693.9032    20     1662.1621 UserPurge2: 1     1871    1.91%
      0     0     1693.7626    21     1662.1621 UserPurge2: 1     1890    1.90%
      0     0     1693.6379    22     1662.1621 UserPurge2: 1     1909    1.89%
      0     0     1693.3222    22     1662.1621 UserPurge2: 1     1923    1.87%
      0     0     1693.2013    23     1662.1621 UserPurge2: 1     1942    1.87%
      0     0     1692.9248    24     1662.1621 UserPurge2: 1     1967    1.85%
      0     0     1692.7064    24     1662.1621 UserPurge2: 1     1991    1.84%
      0     0     1692.4673    23     1662.1621 UserPurge2: 1     2008    1.82%
      0     0     1692.3108    22     1662.1621 UserPurge2: 1     2026    1.81%
      0     0     1691.8805    22     1662.1621 UserPurge2: 1     2063    1.79%
      0     0     1691.5616    21     1662.1621 UserPurge2: 1     2081    1.77%
      0     0     1691.3026    22     1662.1621 UserPurge2: 1     2095    1.75%
      0     0     1691.1965    22     1662.1621 UserPurge2: 1     2110    1.75%
      0     0     1691.0434    23     1662.1621 UserPurge2: 1     2124    1.74%
      0     0     1690.8345    23     1662.1621 UserPurge2: 1     2144    1.73%
      0     0     1690.6073    23     1662.1621 UserPurge2: 1     2162    1.71%
      0     0     1690.5115    22     1662.1621 UserPurge2: 1     2179    1.71%
      0     0     1690.1245    22     1662.1621 UserPurge2: 1     2199    1.68%
      0     0     1689.9994    23     1662.1621 UserPurge2: 1     2217    1.67%
      0     0     1689.9260    24     1662.1621 UserPurge2: 1     2229    1.67%
      0     0     1689.8922    25     1662.1621 UserPurge2: 1     2240    1.67%
      0     0     1689.8033    26     1662.1621 UserPurge2: 1     2261    1.66%
      0     0     1689.5885    26     1662.1621 UserPurge2: 1     2289    1.65%
      0     0     1689.2676    25     1662.1621 UserPurge2: 1     2322    1.63%
      0     0     1688.6365    24     1662.1621 UserPurge2: 1     2351    1.59%
      0     0     1688.4180    22     1662.1621 UserPurge2: 1     2373    1.58%
      0     0     1687.9007    21     1662.1621 UserPurge2: 1     2404    1.55%
      0     0     1687.8343    21     1662.1621 UserPurge2: 1     2413    1.54%
      0     0     1687.7872    22     1662.1621 UserPurge2: 1     2422    1.54%
      0     0     1687.4809    21     1662.1621 UserPurge2: 1     2447    1.52%
      0     0     1687.1829    21     1662.1621 UserPurge2: 1     2476    1.51%
      0     0     1687.0506    22     1662.1621 UserPurge2: 1     2490    1.50%
      0     0     1686.9729    23     1662.1621 UserPurge2: 1     2502    1.49%
      0     0     1686.8622    23     1662.1621 UserPurge2: 1     2518    1.49%
      0     0     1686.8045    23     1662.1621 UserPurge2: 1     2531    1.48%
      0     0     1686.7781    24     1662.1621 UserPurge2: 1     2540    1.48%
      0     0     1686.6691    23     1662.1621 UserPurge2: 1     2562    1.47%
      0     0     1686.5958    24     1662.1621 UserPurge2: 1     2585    1.47%
      0     0     1686.5182    25     1662.1621 UserPurge2: 1     2600    1.47%
      0     0     1686.4186    25     1662.1621 UserPurge2: 1     2622    1.46%
      0     0     1686.3418    25     1662.1621 UserPurge2: 1     2637    1.45%
      0     0     1686.2597    25     1662.1621 UserPurge2: 1     2662    1.45%
      0     0     1686.0118    24     1662.1621 UserPurge2: 1     2688    1.43%
      0     0     1685.7371    24     1662.1621 UserPurge2: 1     2714    1.42%
      0     0     1685.6511    24     1662.1621 UserPurge2: 1     2728    1.41%
      0     0     1685.6068    25     1662.1621 UserPurge2: 1     2742    1.41%
      0     0     1685.3896    24     1662.1621 UserPurge2: 1     2775    1.40%
      0     0     1685.2009    23     1662.1621 UserPurge2: 1     2792    1.39%
      0     0     1685.1194    24     1662.1621 UserPurge2: 1     2802    1.38%
      0     0     1685.0073    25     1662.1621 UserPurge2: 1     2817    1.37%
      0     0     1684.7500    25     1662.1621 UserPurge2: 1     2846    1.36%
      0     0     1684.6625    23     1662.1621 UserPurge2: 1     2856    1.35%
      0     0     1684.5762    24     1662.1621 UserPurge2: 1     2873    1.35%
      0     0     1684.5244    25     1662.1621 UserPurge2: 1     2892    1.35%
      0     0     1684.4656    26     1662.1621 UserPurge2: 1     2910    1.34%
      0     0     1684.3798    26     1662.1621 UserPurge2: 1     2934    1.34%
      0     0     1684.2649    26     1662.1621 UserPurge2: 1     2961    1.33%
      0     0     1684.1558    26     1662.1621 UserPurge2: 1     2991    1.32%
      0     0     1684.0765    26     1662.1621 UserPurge2: 1     3007    1.32%
      0     0     1683.8281    25     1662.1621 UserPurge2: 1     3045    1.30%
      0     0     1683.5850    26     1662.1621 UserPurge2: 1     3067    1.29%
      0     0     1683.3180    26     1662.1621 UserPurge2: 1     3096    1.27%
      0     0     1683.1463    26     1662.1621 UserPurge2: 1     3125    1.26%
      0     0     1682.9301    27     1662.1621 UserPurge2: 1     3149    1.25%
      0     0     1682.6542    27     1662.1621 UserPurge2: 1     3195    1.23%
      0     0     1682.5858    27     1662.1621 UserPurge2: 1     3215    1.23%
      0     0     1682.3096    24     1662.1621 UserPurge2: 1     3264    1.21%
      0     0     1682.2345    25     1662.1621 UserPurge2: 1     3280    1.21%
      0     0     1682.0833    26     1662.1621 UserPurge2: 1     3301    1.20%
      0     0     1681.9588    26     1662.1621 UserPurge2: 1     3330    1.19%
      0     0     1681.5622    23     1662.1621 UserPurge2: 1     3371    1.17%
      0     0     1681.4721    24     1662.1621 UserPurge2: 1     3388    1.16%
      0     0     1681.4064    25     1662.1621 UserPurge2: 1     3408    1.16%
      0     0     1681.1554    25     1662.1621 UserPurge2: 1     3436    1.14%
      0     0     1681.0615    25     1662.1621 UserPurge2: 1     3451    1.14%
      0     0     1680.9432    25     1662.1621 UserPurge2: 1     3473    1.13%
      0     0     1680.8386    26     1662.1621 UserPurge2: 1     3490    1.12%
      0     0     1680.7776    26     1662.1621 UserPurge2: 1     3506    1.12%
      0     0     1680.6767    26     1662.1621 UserPurge2: 1     3525    1.11%
      0     0     1680.6055    27     1662.1621 UserPurge2: 1     3540    1.11%
      0     0     1680.4877    28     1662.1621 UserPurge2: 1     3565    1.10%
      0     0     1680.1890    27     1662.1621 UserPurge2: 1     3601    1.08%
      0     0     1680.1024    25     1662.1621 UserPurge2: 1     3619    1.08%
      0     0     1679.9534    25     1662.1621 UserPurge2: 1     3642    1.07%
      0     0     1679.8567    26     1662.1621 UserPurge2: 1     3666    1.06%
      0     0     1679.6740    26     1662.1621 UserPurge2: 1     3693    1.05%
      0     0     1679.5910    26     1662.1621 UserPurge2: 1     3716    1.05%
      0     0     1679.5395    27     1662.1621 UserPurge2: 1     3733    1.05%
      0     0     1679.4794    27     1662.1621 UserPurge2: 1     3765    1.04%
      0     0     1679.4515    28     1662.1621 UserPurge2: 1     3781    1.04%
      0     0     1679.4201    29     1662.1621 UserPurge2: 1     3794    1.04%
      0     0     1679.3676    29     1662.1621 UserPurge2: 1     3827    1.04%
      0     0     1679.2745    30     1662.1621 UserPurge2: 1     3858    1.03%
      0     0     1679.2132    31     1662.1621 UserPurge2: 1     3883    1.03%
      0     0     1679.0779    28     1662.1621 UserPurge2: 1     3922    1.02%
      0     0     1678.9484    28     1662.1621 UserPurge2: 1     3946    1.01%
      0     0     1678.8031    29     1662.1621 UserPurge2: 1     3976    1.00%
      0     0     1678.5673    28     1662.1621 UserPurge2: 1     3999    0.99%
      0     0     1678.4930    28     1662.1621 UserPurge2: 1     4017    0.98%
      0     0     1678.3056    28     1662.1621 UserPurge2: 1     4042    0.97%
      0     0     1678.1308    27     1662.1621 UserPurge2: 1     4065    0.96%
      0     0     1677.8795    25     1662.1621 UserPurge2: 1     4085    0.95%
      0     0     1677.8218    23     1662.1621 UserPurge2: 1     4096    0.94%
      0     0     1677.7642    24     1662.1621 UserPurge2: 1     4106    0.94%
      0     0     1677.7311    25     1662.1621 UserPurge2: 1     4114    0.94%
      0     0     1677.7176    25     1662.1621 UserPurge2: 1     4118    0.94%
      0     0     1677.6640    25     1662.1621 UserPurge2: 1     4131    0.93%
      0     0     1677.5935    26     1662.1621 UserPurge2: 1     4147    0.93%
      0     0     1677.5582    27     1662.1621 UserPurge2: 1     4157    0.93%
      0     0     1677.4978    27     1662.1621 UserPurge2: 1     4183    0.92%
      0     0     1677.4618    28     1662.1621 UserPurge2: 1     4205    0.92%
      0     0     1677.4221    29     1662.1621 UserPurge2: 1     4220    0.92%
      0     0     1677.3173    27     1662.1621 UserPurge2: 1     4255    0.91%
      0     0     1677.2521    28     1662.1621 UserPurge2: 1     4287    0.91%
      0     0     1677.2354    29     1662.1621 UserPurge2: 1     4302    0.91%
      0     0     1677.2155    30     1662.1621 UserPurge2: 1     4314    0.91%
      0     0     1677.1838    31     1662.1621 UserPurge2: 1     4338    0.90%
      0     0     1677.1457    30     1662.1621 UserPurge2: 1     4360    0.90%
      0     0     1677.0657    30     1662.1621 UserPurge2: 1     4395    0.90%
      0     0     1677.0294    29     1662.1621 UserPurge2: 1     4412    0.89%
      0     0     1677.0132    30     1662.1621 UserPurge2: 1     4426    0.89%
      0     0     1677.0023    31     1662.1621 UserPurge2: 1     4440    0.89%
      0     0     1676.9653    31     1662.1621 UserPurge2: 1     4462    0.89%
      0     0     1676.9326    32     1662.1621 UserPurge2: 1     4485    0.89%
      0     0     1676.9002    33     1662.1621 UserPurge2: 1     4506    0.89%
      0     0     1676.7783    32     1662.1621 UserPurge2: 1     4546    0.88%
      0     0     1676.7146    32     1662.1621 UserPurge2: 1     4576    0.88%
      0     0     1676.6413    32     1662.1621 UserPurge2: 1     4605    0.87%
      0     0     1676.6227    33     1662.1621 UserPurge2: 1     4621    0.87%
      0     0     1676.5692    32     1662.1621 UserPurge2: 1     4653    0.87%
      0     0     1676.5285    33     1662.1621 UserPurge2: 1     4666    0.86%
      0     0     1676.4161    33     1662.1621 UserPurge2: 1     4704    0.86%
      0     0     1676.3737    32     1662.1621 UserPurge2: 1     4727    0.86%
      0     0     1676.2688    33     1662.1621 UserPurge2: 1     4758    0.85%
      0     0     1676.2059    31     1662.1621 UserPurge2: 1     4783    0.84%
      0     0     1676.1547    31     1662.1621 UserPurge2: 1     4811    0.84%
      0     0     1676.1015    30     1662.1621 UserPurge2: 1     4838    0.84%
      0     0     1676.0612    31     1662.1621 UserPurge2: 1     4855    0.84%
      0     0     1676.0153    31     1662.1621 UserPurge2: 1     4880    0.83%
      0     0     1675.9808    31     1662.1621 UserPurge2: 1     4899    0.83%
      0     0     1675.9614    32     1662.1621 UserPurge2: 1     4926    0.83%
      0     0     1675.9312    33     1662.1621 UserPurge2: 1     4950    0.83%
      0     0     1675.8188    31     1662.1621 UserPurge2: 1     4989    0.82%
      0     0     1675.7722    32     1662.1621 UserPurge2: 1     5014    0.82%
      0     0     1675.7123    33     1662.1621 UserPurge2: 1     5042    0.82%
      0     0     1675.5863    33     1662.1621 UserPurge2: 1     5077    0.81%
      0     0     1675.5307    33     1662.1621 UserPurge2: 1     5105    0.80%
      0     0     1675.4517    32     1662.1621 UserPurge2: 1     5127    0.80%
      0     0     1675.3115    31     1662.1621 UserPurge2: 1     5159    0.79%
      0     0     1675.2611    32     1662.1621 UserPurge2: 1     5182    0.79%
      0     0     1675.2422    33     1662.1621 UserPurge2: 1     5194    0.79%
      0     0     1675.2356    34     1662.1621 UserPurge2: 1     5208    0.79%
      0     0     1675.1953    34     1662.1621 UserPurge2: 1     5239    0.78%
      0     0     1675.1820    34     1662.1621 UserPurge2: 1     5256    0.78%
      0     0     1675.1345    34     1662.1621 UserPurge2: 1     5287    0.78%
      0     0     1675.1108    35     1662.1621 UserPurge2: 1     5307    0.78%
      0     0     1675.0745    36     1662.1621 UserPurge2: 1     5329    0.78%
      0     0     1674.9402    33     1662.1621 UserPurge2: 1     5375    0.77%
      0     0     1674.8008    31     1662.1621 UserPurge2: 1     5418    0.76%
      0     0     1674.7335    31     1662.1621 UserPurge2: 1     5440    0.76%
      0     0     1674.6801    32     1662.1621 UserPurge2: 1     5457    0.75%
      0     0     1674.6382    33     1662.1621 UserPurge2: 1     5479    0.75%
      0     0     1674.5917    34     1662.1621 UserPurge2: 1     5506    0.75%
      0     0     1674.5708    34     1662.1621 UserPurge2: 1     5536    0.75%
      0     0     1674.4821    35     1662.1621 UserPurge2: 1     5569    0.74%
      0     0     1674.4516    35     1662.1621 UserPurge2: 1     5592    0.74%
      0     0     1674.3830    34     1662.1621 UserPurge2: 1     5620    0.74%
      0     0     1674.3209    35     1662.1621 UserPurge2: 1     5644    0.73%
      0     0     1674.2479    36     1662.1621 UserPurge2: 1     5673    0.73%
      0     0     1673.9549    35     1662.1621 UserPurge2: 1     5737    0.71%
      0     0     1673.8013    34     1662.1621 UserPurge2: 1     5775    0.70%
      0     0     1673.7737    34     1662.1621 UserPurge2: 1     5789    0.70%
      0     0     1673.6625    35     1662.1621 UserPurge2: 1     5824    0.69%
      0     0     1673.5143    33     1662.1621 UserPurge2: 1     5856    0.68%
      0     0     1673.4977    33     1662.1621 UserPurge2: 1     5873    0.68%
      0     0     1673.4396    32     1662.1621 UserPurge2: 1     5902    0.68%
      0     0     1673.4187    33     1662.1621 UserPurge2: 1     5914    0.68%
      0     0     1673.3650    34     1662.1621 UserPurge2: 1     5935    0.67%
      0     0     1673.2929    35     1662.1621 UserPurge2: 1     5971    0.67%
      0     0     1673.2707    36     1662.1621 UserPurge2: 1     5983    0.67%
      0     0     1673.2522    37     1662.1621 UserPurge2: 1     6012    0.67%
      0     0     1673.1825    36     1662.1621 UserPurge2: 1     6041    0.66%
      0     0     1673.1375    36     1662.1621 UserPurge2: 1     6061    0.66%
      0     0     1673.0616    35     1662.1621 UserPurge2: 1     6093    0.66%
      0     0     1673.0296    36     1662.1621 UserPurge2: 1     6121    0.65%
      0     0     1672.9380    35     1662.1621 UserPurge2: 1     6159    0.65%
      0     0     1672.8915    36     1662.1621 UserPurge2: 1     6184    0.65%
      0     0     1672.7834    35     1662.1621 UserPurge2: 1     6233    0.64%
      0     0     1672.7733    36     1662.1621 UserPurge2: 1     6242    0.64%
      0     0     1672.7087    36     1662.1621 UserPurge2: 1     6281    0.63%
      0     0     1672.6342    36     1662.1621 UserPurge2: 1     6296    0.63%
      0     0     1672.5739    36     1662.1621 UserPurge2: 1     6326    0.63%
      0     0     1672.5363    36     1662.1621 UserPurge2: 1     6352    0.62%
      0     0     1672.4830    35     1662.1621 UserPurge2: 1     6385    0.62%
      0     0     1672.4055    34     1662.1621 UserPurge2: 1     6421    0.62%
      0     0     1672.3892    35     1662.1621 UserPurge2: 1     6443    0.62%
      0     0     1672.3604    35     1662.1621 UserPurge2: 1     6474    0.61%
      0     0     1672.3264    36     1662.1621 UserPurge2: 1     6497    0.61%
      0     0     1672.2697    36     1662.1621 UserPurge2: 1     6530    0.61%
      0     0     1672.2254    37     1662.1621 UserPurge2: 1     6555    0.61%
      0     0     1672.1900    37     1662.1621 UserPurge2: 1     6577    0.60%
      0     0     1672.1666    38     1662.1621 UserPurge2: 1     6597    0.60%
      0     0     1672.1513    39     1662.1621 UserPurge2: 1     6621    0.60%
      0     0     1672.0819    39     1662.1621 UserPurge2: 1     6659    0.60%
      0     0     1671.9891    35     1662.1621 UserPurge2: 1     6702    0.59%
      0     0     1671.9245    35     1662.1621 UserPurge2: 1     6730    0.59%
      0     0     1671.8720    36     1662.1621 UserPurge2: 1     6751    0.58%
      0     0     1671.8092    36     1662.1621 UserPurge2: 1     6775    0.58%
      0     0     1671.7890    37     1662.1621 UserPurge2: 1     6794    0.58%
      0     0     1671.7554    38     1662.1621 UserPurge2: 1     6814    0.58%
      0     0     1671.6986    38     1662.1621 UserPurge2: 1     6849    0.57%
      0     0     1671.6290    38     1662.1621 UserPurge2: 1     6876    0.57%
      0     0     1671.5637    37     1662.1621 UserPurge2: 1     6912    0.57%
      0     0     1671.5003    37     1662.1621 UserPurge2: 1     6940    0.56%
      0     0     1671.4243    36     1662.1621 UserPurge2: 1     6963    0.56%
      0     0     1671.3779    37     1662.1621 UserPurge2: 1     6993    0.55%
      0     0     1671.3530    38     1662.1621 UserPurge2: 1     7015    0.55%
      0     0     1671.3055    37     1662.1621 UserPurge2: 1     7043    0.55%
      0     0     1671.2809    37     1662.1621 UserPurge2: 1     7065    0.55%
      0     0     1671.2471    36     1662.1621 UserPurge2: 1     7087    0.55%
      0     0     1671.2207    37     1662.1621 UserPurge2: 1     7121    0.54%
      0     0     1671.1913    37     1662.1621 UserPurge2: 1     7141    0.54%
      0     0     1671.1584    37     1662.1621 UserPurge2: 1     7174    0.54%
      0     0     1671.1253    37     1662.1621 UserPurge2: 1     7198    0.54%
      0     0     1671.0984    36     1662.1621 UserPurge2: 1     7231    0.54%
      0     0     1671.0547    37     1662.1621 UserPurge2: 1     7262    0.54%
      0     0     1671.0343    37     1662.1621 UserPurge2: 1     7287    0.53%
      0     0     1671.0118    38     1662.1621 UserPurge2: 1     7312    0.53%
      0     0     1670.9851    37     1662.1621 UserPurge2: 1     7352    0.53%
      0     0     1670.9531    38     1662.1621 UserPurge2: 1     7380    0.53%
      0     0     1670.9332    39     1662.1621 UserPurge2: 1     7414    0.53%
      0     0     1670.9153    39     1662.1621 UserPurge2: 1     7439    0.53%
      0     0     1670.8904    39     1662.1621 UserPurge2: 1     7471    0.53%
      0     0     1670.8022    37     1662.1621 UserPurge2: 1     7526    0.52%
      0     0     1670.6496    35     1662.1621 UserPurge2: 1     7563    0.51%
      0     0     1670.5523    36     1662.1621 UserPurge2: 1     7600    0.50%
      0     0     1670.5167    35     1662.1621 UserPurge2: 1     7615    0.50%
      0     0     1670.4928    36     1662.1621 UserPurge2: 1     7630    0.50%
      0     0     1670.4764    37     1662.1621 UserPurge2: 1     7651    0.50%
      0     0     1670.4393    37     1662.1621 UserPurge2: 1     7677    0.50%
      0     0     1670.4182    36     1662.1621 UserPurge2: 1     7695    0.50%
      0     0     1670.3901    37     1662.1621 UserPurge2: 1     7725    0.50%
      0     0     1670.3707    37     1662.1621 UserPurge2: 1     7749    0.49%
      0     0     1670.3388    37     1662.1621 UserPurge2: 1     7773    0.49%
      0     0     1670.2682    38     1662.1621 UserPurge2: 1     7804    0.49%
      0     0     1670.2202    37     1662.1621 UserPurge2: 1     7825    0.48%
      0     0     1670.1805    37     1662.1621 UserPurge2: 1     7851    0.48%
      0     0     1670.1379    36     1662.1621 UserPurge2: 1     7877    0.48%
      0     0     1670.1121    35     1662.1621 UserPurge2: 1     7904    0.48%
      0     0     1670.0946    36     1662.1621 UserPurge2: 1     7925    0.48%
      0     0     1670.0762    37     1662.1621 UserPurge2: 1     7944    0.48%
      0     0     1670.0694    38     1662.1621 UserPurge2: 1     7956    0.48%
      0     0     1670.0641    38     1662.1621 UserPurge2: 1     7976    0.48%
      0     0     1670.0495    39     1662.1621 UserPurge2: 1     7998    0.47%
      0     0     1670.0377    39     1662.1621 UserPurge2: 1     8023    0.47%
      0     0     1670.0261    40     1662.1621 UserPurge2: 1     8053    0.47%
      0     0     1670.0122    40     1662.1621 UserPurge2: 1     8087    0.47%
      0     0     1669.9950    41     1662.1621 UserPurge2: 1     8118    0.47%
      0     0     1669.9766    41     1662.1621 UserPurge2: 1     8144    0.47%
      0     0     1669.9673    42     1662.1621 UserPurge2: 1     8162    0.47%
      0     0     1669.9523    43     1662.1621 UserPurge2: 1     8189    0.47%
      0     0     1669.9382    44     1662.1621 UserPurge2: 1     8219    0.47%
      0     0     1669.9138    43     1662.1621 UserPurge2: 1     8266    0.47%
      0     0     1669.8803    42     1662.1621 UserPurge2: 1     8299    0.46%
      0     0     1669.8491    41     1662.1621 UserPurge2: 1     8332    0.46%
      0     0     1669.8354    41     1662.1621 UserPurge2: 1     8348    0.46%
      0     0     1669.8068    42     1662.1621 UserPurge2: 1     8380    0.46%
      0     0     1669.7910    42     1662.1621 UserPurge2: 1     8401    0.46%
      0     0     1669.7696    43     1662.1621 UserPurge2: 1     8429    0.46%
      0     0     1669.7386    42     1662.1621 UserPurge2: 1     8461    0.46%
      0     0     1669.7259    42     1662.1621 UserPurge2: 1     8493    0.46%
      0     0     1669.7117    43     1662.1621 UserPurge2: 1     8518    0.45%
      0     0     1669.6913    44     1662.1621 UserPurge2: 1     8561    0.45%
      0     0     1669.6678    43     1662.1621 UserPurge2: 1     8586    0.45%
      0     0     1669.6382    44     1662.1621 UserPurge2: 1     8615    0.45%
      0     0     1669.6156    43     1662.1621 UserPurge2: 1     8648    0.45%
      0     0     1669.5844    42     1662.1621 UserPurge2: 1     8682    0.45%
      0     0     1669.5567    43     1662.1621 UserPurge2: 1     8705    0.44%
      0     0     1669.5057    43     1662.1621 UserPurge2: 1     8743    0.44%
      0     0     1669.4691    43     1662.1621 UserPurge2: 1     8773    0.44%
      0     0     1669.4212    43     1662.1621 UserPurge2: 1     8815    0.44%
      0     0     1669.3701    41     1662.1621 UserPurge2: 1     8852    0.43%
      0     0     1669.3580    41     1662.1621 UserPurge2: 1     8866    0.43%
      0     0     1669.3348    42     1662.1621 UserPurge2: 1     8894    0.43%
      0     0     1669.3196    42     1662.1621 UserPurge2: 1     8916    0.43%
      0     0     1669.3005    42     1662.1621 UserPurge2: 1     8932    0.43%
      0     0     1669.2735    43     1662.1621 UserPurge2: 1     8965    0.43%
      0     0     1669.2230    41     1662.1621 UserPurge2: 1     9017    0.42%
      0     0     1669.2084    40     1662.1621 UserPurge2: 1     9034    0.42%
      0     0     1669.1920    41     1662.1621 UserPurge2: 1     9057    0.42%
      0     0     1669.1724    41     1662.1621 UserPurge2: 1     9074    0.42%
      0     0     1669.1289    39     1662.1621 UserPurge2: 1     9104    0.42%
      0     0     1669.0665    37     1662.1621 UserPurge2: 1     9151    0.42%
      0     0     1669.0569    38     1662.1621 UserPurge2: 1     9172    0.41%
      0     0     1669.0328    39     1662.1621 UserPurge2: 1     9190    0.41%
      0     0     1669.0095    39     1662.1621 UserPurge2: 1     9202    0.41%
      0     0     1669.0013    40     1662.1621 UserPurge2: 1     9211    0.41%
      0     0     1668.9792    40     1662.1621 UserPurge2: 1     9246    0.41%
      0     0     1668.9655    40     1662.1621 UserPurge2: 1     9266    0.41%
      0     0     1668.9494    40     1662.1621 UserPurge2: 1     9294    0.41%
      0     0     1668.9457    40     1662.1621 UserPurge2: 1     9311    0.41%
      0     0     1668.9321    41     1662.1621 UserPurge2: 1     9337    0.41%
      0     0     1668.9132    41     1662.1621 UserPurge2: 1     9365    0.41%
      0     0     1668.9020    42     1662.1621 UserPurge2: 1     9387    0.41%
      0     0     1668.8902    42     1662.1621 UserPurge2: 1     9415    0.40%
      0     0     1668.8734    43     1662.1621 UserPurge2: 1     9445    0.40%
      0     0     1668.8655    42     1662.1621 UserPurge2: 1     9470    0.40%
      0     0     1668.8598    43     1662.1621 UserPurge2: 1     9490    0.40%
      0     0     1668.8486    43     1662.1621 UserPurge2: 1     9526    0.40%
      0     0     1668.8414    44     1662.1621 UserPurge2: 1     9545    0.40%
      0     0     1668.8313    45     1662.1621 UserPurge2: 1     9567    0.40%
      0     0     1668.8237    46     1662.1621 UserPurge2: 1     9598    0.40%
      0     0     1668.8114    46     1662.1621 UserPurge2: 1     9623    0.40%
      0     0     1668.7662    45     1662.1621 UserPurge2: 1     9667    0.40%
      0     0     1668.6396    40     1662.1621 UserPurge2: 1     9718    0.39%
      0     0     1668.6095    40     1662.1621 UserPurge2: 1     9746    0.39%
      0     0     1668.5963    41     1662.1621 UserPurge2: 1     9766    0.39%
      0     0     1668.5815    42     1662.1621 UserPurge2: 1     9806    0.39%
      0     0     1668.5662    42     1662.1621 UserPurge2: 1     9827    0.39%
      0     0     1668.5434    42     1662.1621 UserPurge2: 1     9847    0.38%
      0     0     1668.5240    42     1662.1621 UserPurge2: 1     9879    0.38%
      0     0     1668.5001    41     1662.1621 UserPurge2: 1     9904    0.38%
      0     0     1668.4827    41     1662.1621 UserPurge2: 1     9927    0.38%
      0     0     1668.4673    40     1662.1621 UserPurge2: 1     9950    0.38%
      0     0     1668.4590    41     1662.1621 UserPurge2: 1     9968    0.38%
      0     0     1668.4389    40     1662.1621 UserPurge2: 1     9993    0.38%
      0     0     1668.4325    40     1662.1621 UserPurge2: 1    10010    0.38%
      0     0     1668.4237    41     1662.1621 UserPurge2: 1    10027    0.38%
      0     0     1668.4121    42     1662.1621 UserPurge2: 1    10045    0.38%
      0     0     1668.4031    43     1662.1621 UserPurge2: 1    10068    0.38%
      0     0     1668.3920    43     1662.1621 UserPurge2: 1    10093    0.37%
      0     0     1668.3554    43     1662.1621 UserPurge2: 1    10131    0.37%
      0     0     1668.3419    44     1662.1621 UserPurge2: 1    10152    0.37%
      0     0     1668.3318    43     1662.1621 UserPurge2: 1    10177    0.37%
      0     0     1668.3124    44     1662.1621 UserPurge2: 1    10224    0.37%
      0     0     1668.2842    43     1662.1621 UserPurge2: 1    10257    0.37%
      0     0     1668.2530    43     1662.1621 UserPurge2: 1    10298    0.37%
      0     0     1668.2261    42     1662.1621 UserPurge2: 1    10324    0.36%
      0     0     1668.1957    42     1662.1621 UserPurge2: 1    10348    0.36%
      0     0     1668.1754    40     1662.1621 UserPurge2: 1    10382    0.36%
      0     0     1668.1627    41     1662.1621 UserPurge2: 1    10407    0.36%
      0     0     1668.1536    42     1662.1621 UserPurge2: 1    10430    0.36%
      0     0     1668.1485    42     1662.1621 UserPurge2: 1    10450    0.36%
      0     0     1668.1420    43     1662.1621 UserPurge2: 1    10473    0.36%
      0     0     1668.1331    42     1662.1621 UserPurge2: 1    10497    0.36%
      0     0     1668.1257    43     1662.1621 UserPurge2: 1    10518    0.36%
      0     0     1668.1139    43     1662.1621 UserPurge2: 1    10561    0.36%
      0     0     1668.1056    43     1662.1621 UserPurge2: 1    10577    0.36%
      0     0     1668.0979    44     1662.1621 UserPurge2: 1    10604    0.36%
      0     0     1668.0836    44     1662.1621 UserPurge2: 1    10634    0.36%
      0     0     1668.0785    45     1662.1621 UserPurge2: 1    10650    0.36%
      0     0     1668.0723    46     1662.1621 UserPurge2: 1    10684    0.36%
      0     0     1668.0562    47     1662.1621 UserPurge2: 1    10721    0.35%
      0     0     1668.0518    47     1662.1621 UserPurge2: 1    10747    0.35%
      0     0     1668.0463    47     1662.1621 UserPurge2: 1    10792    0.35%
      0     0     1668.0359    47     1662.1621 UserPurge2: 1    10827    0.35%
      0     0     1668.0271    47     1662.1621 UserPurge2: 1    10856    0.35%
      0     0     1668.0134    46     1662.1621 UserPurge2: 1    10887    0.35%
      0     0     1667.9838    45     1662.1621 UserPurge2: 1    10914    0.35%
      0     0     1667.9461    42     1662.1621 UserPurge2: 1    10949    0.35%
*     0+    0                         1662.7514     1667.9461             0.31%
      0     2     1667.9461    42     1662.7514     1667.9458    10949    0.31%
Elapsed time = 24.32 sec. (4575.41 ticks, tree = 0.01 MB, solutions = 2)
      1     3     1664.1953    48     1662.7514     1667.9458    23958    0.31%
      2     4     1664.8246     4     1662.7514     1664.8246    50281    0.12%
*     3     1      integral     0     1664.8145     1664.8244    50736    0.00%

User cuts applied:  2270

Root node processing (before b&c):
  Real time             =   24.32 sec. (4580.50 ticks)
Sequential b&c:
  Real time             =   94.70 sec. (36890.42 ticks)
                          ------------
Total (root+branch&cut) =  119.02 sec. (41470.91 ticks)
@Parameters: 
is_S_cut                                true
is_add_all_yinF                         true
is_start_value                          true
is_usercut                              true
is_visualization                        false
uc_only_rootnode                        false

data                                    Qi
fn                                      data/Qi/instance_800_800.csv
mode                                    NewSubmodular
solver                                  cplex

p                                       10
r                                       50

EPS                                     1.0e-06
EPS_vio                                 1.0e-04
beta                                    0.10
gap                                     0.00
nodelimit                               Inf
timelimit                               7200.00


@PrintInfos
ItCnt: 50766
Current gap: 0.00 %
Termination Status: OPTIMAL
Primal Status: FEASIBLE_POINT
Solve Time: 119.02 sec
Objective Value: 1664.814463
Number of Nodes:      5

CutInfo: [phase] num / time (sec) 
ZLP             [phase1]     0 / 0.00 [rLC]     0 / 0.00 [rUC]     0 / 0.00 [sLC]     0 / 0.00 [sUC]     0 / 0.00 
OldSubmodular   [phase1]     0 / 0.00 [rLC]     0 / 0.00 [rUC]     0 / 0.00 [sLC]     0 / 0.00 [sUC]     0 / 0.00 
NewSubmodular   [phase1]     0 / 0.00 [rLC]   111 / 5.84 [rUC]   445 / 13.26 [sLC]     1 / 1.47 [sUC]  2221 / 61.34 
PMP             [phase1]     0 / 0.00 [rLC]     4 / 2.34 [rUC]     0 / 0.00 [sLC]     2 / 1.44 [sUC]     3 / 2.20 
Separation Round: [phase1] 0  [rLC] 111  [rUC] 445  [sLC] 2  [sUC] 877
Root Best Bound 1664.824559
Root Best Integer: 1662.751431
Best Bound: 1664.814463
Best Integer: 1664.814463

